atom_style hybrid molecular sphere
units si
processors	* * 1
comm_modify vel yes
comm_modify cutoff 0.01

region simulationStation block -0.060000000000000005 0.060000000000000005 -0.006 0.006 -0.055 0.055
create_box 100 simulationStation bond/types 100000 extra/bond/per/atom 100 angle/types 10000 extra/angle/per/atom 100 dihedral/types 1000 extra/dihedral/per/atom 100
change_box	all boundary f f f

pair_style hybrid/overlay granular lj/cut 0
pair_coeff  * * granular hertz/material 0 0 0 tangential linear_nohistory 0 0
pair_coeff  * * lj/cut 0 0 0

special_bonds lj/coul 0 1.0 1.0
bond_style harmonic
angle_style cosine/shift
dihedral_style spherical

bond_coeff * 0 0
angle_coeff * 0 0
dihedral_coeff * 1 0 1 0 1 1 90 0 1 90 0
fix integration all nve/sphere
neigh_modify page 500000 one 50000


### Here we will begin to include particles ###


fix fix_walls_1 all wall/gran/region granular hertz/material 10000 0.25 0.25 tangential linear_nohistory 0 0 region simulationStation
pair_coeff * * granular hertz/material 10000 0 0.5 tangential linear_nohistory 0 0

include structure/node_1.txt
set type 1 diameter 0.002
set type 1 density 0.5

include structure/node_2.txt
set type 2 diameter 0.002
set type 2 density 0.5

include structure/node_3.txt
set type 3 diameter 0.002
set type 3 density 0.5

include structure/node_4.txt
set type 4 diameter 0.002
set type 4 density 0.5

include structure/node_5.txt
set type 5 diameter 0.002
set type 5 density 0.5

include structure/node_6.txt
set type 6 diameter 0.002
set type 6 density 0.5

include structure/node_7.txt
set type 7 diameter 0.002
set type 7 density 0.5

include structure/node_8.txt
set type 8 diameter 0.002
set type 8 density 0.5

include structure/node_9.txt
set type 9 diameter 0.002
set type 9 density 0.5

include structure/node_10.txt
set type 10 diameter 0.002
set type 10 density 0.5

include structure/element_11.txt
set type 11 diameter 0.002
set type 11 density 0.5
pair_coeff 11 11 granular hertz/material 0 0 0.5 tangential linear_nohistory 0 0

include structure/element_12.txt
set type 12 diameter 0.002
set type 12 density 0.5
pair_coeff 12 12 granular hertz/material 0 0 0.5 tangential linear_nohistory 0 0

include structure/element_13.txt
set type 13 diameter 0.002
set type 13 density 0.5
pair_coeff 13 13 granular hertz/material 0 0 0.5 tangential linear_nohistory 0 0

include structure/element_14.txt
set type 14 diameter 0.002
set type 14 density 0.5
pair_coeff 14 14 granular hertz/material 0 0 0.5 tangential linear_nohistory 0 0

include structure/element_15.txt
set type 15 diameter 0.002
set type 15 density 0.5
pair_coeff 15 15 granular hertz/material 0 0 0.5 tangential linear_nohistory 0 0

include structure/element_16.txt
set type 16 diameter 0.002
set type 16 density 0.5
pair_coeff 16 16 granular hertz/material 0 0 0.5 tangential linear_nohistory 0 0

include structure/element_17.txt
set type 17 diameter 0.002
set type 17 density 0.5
pair_coeff 17 17 granular hertz/material 0 0 0.5 tangential linear_nohistory 0 0

include structure/element_18.txt
set type 18 diameter 0.002
set type 18 density 0.5
pair_coeff 18 18 granular hertz/material 0 0 0.5 tangential linear_nohistory 0 0

include structure/element_19.txt
set type 19 diameter 0.002
set type 19 density 0.5
pair_coeff 19 19 granular hertz/material 0 0 0.5 tangential linear_nohistory 0 0

group group_move_1 id 1 2 3 4 5 6 7 8 9 10
fix fix_move_1 group_move_1 move linear NULL NULL NULL
bond_coeff 1 1928.3292993163782 0.000995680561759171
include structure/bond_1.txt
dihedral_coeff 2 3 2.7531239080645893e-05 1 -6.192447170654956 1 1 90 0 1 90 0 0.0006427764331054596 0 0 0 1 169.16488265196455 1 0 0 0 0.0006427764331054596 0 0 0 0 0 0 1 169.164882651964 1
include structure/dihedral_2.txt
bond_coeff 3 2015.9999999999995 0.0009523809523809526
include structure/bond_3.txt
dihedral_coeff 4 3 8.626404134789463e-05 1 0.0 1 1 90 0 1 90 0 0.000672 0 0 0 1 180.0 1 0 0 0 0.000672 0 0 0 0 0 0 1 180.0 1
include structure/dihedral_4.txt
angle_coeff 5 0.0012796081452526153 84.58244132598207
include structure/angle_5.txt
angle_coeff 6 0.0012796081452526153 95.41755867401794
include structure/angle_6.txt

group group_move_2 id 1 3 5 7 9 413 414 415 416 417 418 419 420 421 422 423 424 425 426 427 428 429 430 431 432 634 635 636 637 638 639 640 641 642 643 644 645 646 647 648 649 650 651 652 653 855 856 857 858 859 860 861 862 863 864 865 866 867 868 869 870 871 872 873 874 1076 1077 1078 1079 1080 1081 1082 1083 1084 1085 1086 1087 1088 1089 1090 1091 1092 1093 1094 1095 11 212 433 654 875
fix fix_move_2 group_move_2 move wiggle 0 0 0.0001 0.1

fix fix_viscosity_1 all viscous 0.02

fix grav all gravity 9.8 vector 0 0 -1

compute bendingE all pe/atom angle
compute stretchingE all pe/atom bond
dump pump all custom 1 raw/out*.dump id type radius x y z fx fy fz c_bendingE c_stretchingE
dump_modify pump pad 11

timestep 1e-07
dump_modify pump every 100000
run 10000000
