atom_style hybrid molecular sphere
units si
processors	* * 1
comm_modify vel yes
comm_modify cutoff 0.01

region simulationStation block -0.0525 0.0525 -0.006 0.006 -0.015 0.015
create_box 100 simulationStation bond/types 100000 extra/bond/per/atom 100 angle/types 10000 extra/angle/per/atom 100 dihedral/types 1000 extra/dihedral/per/atom 100
change_box	all boundary f f f

pair_style hybrid/overlay granular lj/cut 0
pair_coeff  * * granular hertz/material 0 0 0 tangential linear_nohistory 0 0
pair_coeff  * * lj/cut 0 0 0

special_bonds lj/coul 0 1.0 1.0
bond_style harmonic
angle_style cosine/shift
dihedral_style spherical

bond_coeff * 0 0
angle_coeff * 0 0
dihedral_coeff * 1 0 1 0 1 1 90 0 1 90 0
fix integration all nve/sphere
neigh_modify page 500000 one 50000


### Here we will begin to include particles ###


fix fix_walls_1 all wall/gran/region granular hertz/material 10000 0.25 0.25 tangential linear_nohistory 0 0 region simulationStation
pair_coeff * * granular hertz/material 10000 0 0.5 tangential linear_nohistory 0 0

include structure/node_1.txt
set type 1 diameter 0.002
set type 1 density 0.5

include structure/node_2.txt
set type 2 diameter 0.002
set type 2 density 0.5

include structure/element_3.txt
set type 3 diameter 0.002
set type 3 density 0.5
pair_coeff 3 3 granular hertz/material 0 0 0.5 tangential linear_nohistory 0 0

group group_move_1 id 2
fix fix_move_1 group_move_1 move linear NULL NULL NULL

group group_move_2 id 1
fix fix_move_2 group_move_2 move linear 0 0 0

group group_move_3 id 3
fix fix_move_3 group_move_3 move linear 0 0 0
bond_coeff 1 3031.5789473684213 0.0006333333333333333
include structure/bond_1.txt
dihedral_coeff 2 3 0.0 1 0.0 1 1 90 0 1 90 0 0.0010105263157894739 0 0 0 1 180.0 1 0 0 0 0.0010105263157894739 0 0 0 0 0 0 1 180.0 1
include structure/dihedral_2.txt

group group_move_4 id 2
fix fix_move_4 group_move_4 move linear 0 0 -0.009500000000000001

fix fix_viscosity_1 all viscous 2e-07

compute bendingE all pe/atom angle
compute stretchingE all pe/atom bond
dump pump all custom 1 raw/out*.dump id type radius x y z fx fy fz c_bendingE c_stretchingE
dump_modify pump pad 11

timestep 1e-07
dump_modify pump every 100000
run 10000000
